Maximize
  0.00744582811095163 Z_255_0_0 + 0.00529025502544983 Z_255_0_1
   + 0.3187664873084133 Z_255_0_2 + 0.0130727600037211 Z_255_0_3
   + 0.5554246695514641 Z_255_0_4 + 0.00290905110406679 Z_603_2_0
   + 0.002422388372897 Z_603_2_1 + 0.4612700016110596 Z_603_2_2
   + 0.00461440765963537 Z_603_2_3 + 0.4287841512523413 Z_603_2_4
   + 0.0345728640335745 Z_603_4_0 + 0.0667902203953379 Z_603_4_1
   + 0.00793961290079835 Z_603_4_2 + 0.4165474436217438 Z_603_4_3
   + 0.3741498590485454 Z_603_4_4 + 0.0308731090990429 Z_603_0_0
   + 0.0924943019410837 Z_603_0_1 + 0.00761413925186963 Z_603_0_2
   + 0.0593561961862988 Z_603_0_3 + 0.709662253521705 Z_603_0_4
   + 0.0308731090990429 Z_603_3_0 + 0.0924943019410837 Z_603_3_1
   + 0.00761413925186963 Z_603_3_2 + 0.0593561961862988 Z_603_3_3
   + 0.709662253521705 Z_603_3_4 + 0.00290905110406679 Z_603_1_0
   + 0.002422388372897 Z_603_1_1 + 0.4612700016110596 Z_603_1_2
   + 0.00461440765963537 Z_603_1_3 + 0.4287841512523413 Z_603_1_4
   + 0.1109307609450936 Z_603_5_0 + 0.0454434 Z_603_5_1
   + 0.0240808494748993 Z_603_5_2 + 0.0138656267238623 Z_603_5_3
   + 0.705679362813331 Z_603_5_4 + 0.00269497642331656 Z_546_0_0
   + 0.0193108833338504 Z_546_0_1 + 0.00498575629110486 Z_546_0_2
   + 0.3670631424023352 Z_546_0_3 + 0.505945241549393 Z_546_0_4
Subject To
 constraint1_2550: Z_255_0_0 + Z_255_0_1 + Z_255_0_2 + Z_255_0_3
   + Z_255_0_4 <= 1
 constraint1_6032: Z_603_2_0 + Z_603_2_1 + Z_603_2_2 + Z_603_2_3
   + Z_603_2_4 <= 1
 constraint1_6034: Z_603_4_0 + Z_603_4_1 + Z_603_4_2 + Z_603_4_3
   + Z_603_4_4 <= 1
 constraint1_6030: Z_603_0_0 + Z_603_0_1 + Z_603_0_2 + Z_603_0_3
   + Z_603_0_4 <= 1
 constraint1_6033: Z_603_3_0 + Z_603_3_1 + Z_603_3_2 + Z_603_3_3
   + Z_603_3_4 <= 1
 constraint1_6031: Z_603_1_0 + Z_603_1_1 + Z_603_1_2 + Z_603_1_3
   + Z_603_1_4 <= 1
 constraint1_6035: Z_603_5_0 + Z_603_5_1 + Z_603_5_2 + Z_603_5_3
   + Z_603_5_4 <= 1
 constraint1_5460: Z_546_0_0 + Z_546_0_1 + Z_546_0_2 + Z_546_0_3
   + Z_546_0_4 <= 1
 constraint2_2550: Z_255_0_0 <= 1
 constraint2_2551: Z_255_0_1 <= 1
 constraint2_2552: Z_255_0_2 <= 1
 constraint2_2553: Z_255_0_3 <= 1
 constraint2_6030: Z_603_2_0 + Z_603_4_0 + Z_603_0_0 + Z_603_3_0
   + Z_603_1_0 + Z_603_5_0 <= 1
 constraint2_6031: Z_603_2_1 + Z_603_4_1 + Z_603_0_1 + Z_603_3_1
   + Z_603_1_1 + Z_603_5_1 <= 1
 constraint2_6032: Z_603_2_2 + Z_603_4_2 + Z_603_0_2 + Z_603_3_2
   + Z_603_1_2 + Z_603_5_2 <= 1
 constraint2_6033: Z_603_2_3 + Z_603_4_3 + Z_603_0_3 + Z_603_3_3
   + Z_603_1_3 + Z_603_5_3 <= 1
 constraint2_5460: Z_546_0_0 <= 1
 constraint2_5461: Z_546_0_1 <= 1
 constraint2_5462: Z_546_0_2 <= 1
 constraint2_5463: Z_546_0_3 <= 1
Bounds
Binaries
 Z_255_0_0 Z_255_0_1 Z_255_0_2 Z_255_0_3 Z_255_0_4 Z_603_2_0 Z_603_2_1
 Z_603_2_2 Z_603_2_3 Z_603_2_4 Z_603_4_0 Z_603_4_1 Z_603_4_2 Z_603_4_3
 Z_603_4_4 Z_603_0_0 Z_603_0_1 Z_603_0_2 Z_603_0_3 Z_603_0_4 Z_603_3_0
 Z_603_3_1 Z_603_3_2 Z_603_3_3 Z_603_3_4 Z_603_1_0 Z_603_1_1 Z_603_1_2
 Z_603_1_3 Z_603_1_4 Z_603_5_0 Z_603_5_1 Z_603_5_2 Z_603_5_3 Z_603_5_4
 Z_546_0_0 Z_546_0_1 Z_546_0_2 Z_546_0_3 Z_546_0_4
End
